; Ejercicio 1 b) (x Ôêº y) Ôëí ┬¼(┬¼x Ôê¿ ┬¼y)
; COMPLETAR
(declare-const x Bool)
(declare-const y Bool)
(assert (= (and x y) (not (or (not x) (not y)))))
(check-sat)
(get-model)
;Este ejercicio es tautologia por lo que el modelo devuelve vacio 